p edge 21 29
e 1 3
e 1 4
e 1 5
e 1 13
e 1 20
e 2 18
e 3 20
e 4 5
e 4 6
e 4 7
e 4 15
e 4 21
e 5 6
e 5 9
e 5 12
e 5 13
e 6 10
e 7 17
e 8 10
e 8 11
e 9 11
e 9 13
e 9 14
e 11 13
e 11 14
e 12 15
e 13 14
e 14 19
e 15 16
